NAME 
ROWS
 N  OBJ
 L  R0      
 E  R1      
 E  R2      
 E  R3      
 E  R4      
 E  R5      
 E  R6      
 E  R7      
 E  R8      
 E  R9      
 E  R10     
 E  R11     
 E  R12     
 E  R13     
 E  R14     
 E  R15     
COLUMNS
    MARKER    'MARKER'                 'INTORG'
    I0(7)     OBJ       -117
    I0(7)     R0        -74
    I0(7)     R1        8
    I0(7)     R2        13
    I0(7)     R5        12
    I0(7)     R6        19
    I0(7)     R7        3
    I0(7)     R15       1
    I1(7)     OBJ       -15
    I1(7)     R0        -114
    I1(7)     R2        6
    I1(7)     R3        17
    I1(7)     R4        -1
    I1(7)     R5        13
    I1(7)     R7        8
    I1(7)     R15       1
    I2(7)     OBJ       31
    I2(7)     R0        60
    I2(7)     R1        18
    I2(7)     R2        9
    I2(7)     R4        14
    I2(7)     R5        12
    I2(7)     R7        10
    I2(7)     R15       1
    I3(4)     OBJ       -200
    I3(4)     R0        -131
    I3(4)     R1        8
    I3(4)     R7        -1
    I3(4)     R15       1
    I4(7)     OBJ       -22
    I4(7)     R0        31
    I4(7)     R1        7
    I4(7)     R2        13
    I4(7)     R3        -1
    I4(7)     R4        3
    I4(7)     R7        6
    I4(7)     R15       1
    I5(5)     OBJ       -179
    I5(5)     R0        -52
    I5(5)     R1        18
    I5(5)     R3        4
    I5(5)     R4        6
    I5(5)     R15       1
    I6(6)     OBJ       133
    I6(6)     R0        41
    I6(6)     R1        7
    I6(6)     R4        7
    I6(6)     R6        18
    I6(6)     R7        4
    I6(6)     R15       1
    MARKER    'MARKER'                 'INTEND'
    C7(7)     OBJ       -2
    C7(7)     R0        3
    C7(7)     R2        10
    C7(7)     R5        1
    C7(7)     R6        10
    C7(7)     R9        9
    C7(7)     R10       19
    C7(7)     R12       7
    C8(7)     OBJ       -9
    C8(7)     R3        2
    C8(7)     R4        15
    C8(7)     R5        12
    C8(7)     R6        6
    C8(7)     R8        14
    C8(7)     R11       13
    C8(7)     R13       15
    C9(9)     OBJ       9
    C9(9)     R0        -6
    C9(9)     R1        1
    C9(9)     R2        10
    C9(9)     R3        18
    C9(9)     R4        6
    C9(9)     R5        6
    C9(9)     R6        11
    C9(9)     R9        7
    C9(9)     R12       18
    C10(7)    OBJ       8
    C10(7)    R0        -7
    C10(7)    R4        10
    C10(7)    R5        12
    C10(7)    R6        8
    C10(7)    R9        4
    C10(7)    R12       4
    C10(7)    R14       11
    C11(9)    OBJ       -5
    C11(9)    R0        1
    C11(9)    R1        13
    C11(9)    R3        1
    C11(9)    R7        8
    C11(9)    R9        3
    C11(9)    R11       6
    C11(9)    R12       1
    C11(9)    R13       8
    C11(9)    R14       17
    C12(5)    OBJ       -3
    C12(5)    R0        -5
    C12(5)    R1        4
    C12(5)    R9        8
    C12(5)    R11       14
    C12(5)    R12       18
    C13(8)    OBJ       -6
    C13(8)    R0        -1
    C13(8)    R4        6
    C13(8)    R5        5
    C13(8)    R6        13
    C13(8)    R7        13
    C13(8)    R8        6
    C13(8)    R10       10
    C13(8)    R12       7
    C14(9)    OBJ       4
    C14(9)    R0        -10
    C14(9)    R2        12
    C14(9)    R4        9
    C14(9)    R5        19
    C14(9)    R6        15
    C14(9)    R8        7
    C14(9)    R9        5
    C14(9)    R12       12
    C14(9)    R14       2
    C15(1)    R1        1
    C16(1)    R2        1
    C17(1)    R3        1
    C18(1)    R4        1
    C19(1)    R5        1
    C20(1)    R6        1
    C21(1)    R7        1
    C22(1)    R8        1
    C23(1)    R9        1
    C24(1)    R10       1
    C25(1)    R11       1
    C26(1)    R12       1
    C27(1)    R13       1
    C28(1)    R14       1
    C29(1)    R15       1
RHS
    RHS1      R0        -262.186290900406
    RHS1      R1        69
    RHS1      R2        85
    RHS1      R3        82
    RHS1      R4        80
    RHS1      R5        73
    RHS1      R6        71
    RHS1      R7        93
    RHS1      R8        77
    RHS1      R9        86
    RHS1      R10       54
    RHS1      R11       76
    RHS1      R12       56
    RHS1      R13       93
    RHS1      R14       83
    RHS1      R15       2
BOUNDS
 UP BND1      I0(7)     2
 UP BND1      I1(7)     2
 UP BND1      I2(7)     2
 UP BND1      I3(4)     2
 UP BND1      I4(7)     2
 UP BND1      I5(5)     2
 UP BND1      I6(6)     2
ENDATA
